p cnf 34 45
-6 -23 4 0
27 30 18 0
-26 -5 -28 0
-25 21 -22 0
-17 -10 -10 0
-29 -17 1 0
3 -14 -16 0
30 -12 -32 0
20 32 -26 0
8 -2 4 0
24 -24 2 0
5 18 2 0
3 12 -22 0
-34 -25 33 0
-22 -25 18 0
-28 -12 28 0
33 -19 -25 0
-10 -31 21 0
-14 6 7 0
-4 25 -14 0
29 -5 -27 0
22 10 -28 0
-24 31 18 0
-11 24 20 0
-30 -14 14 0
15 -2 11 0
1 9 -31 0
-8 5 -26 0
9 -34 5 0
-13 25 17 0
-20 -17 16 0
2 29 -19 0
-22 10 4 0
20 3 -10 0
14 19 19 0
-3 -1 27 0
26 -27 29 0
-21 -16 31 0
27 -23 7 0
-29 6 17 0
4 34 4 0
7 19 -16 0
11 -34 -11 0
-4 -32 16 0
33 -7 -14 0
